p cnf 248 790
1 2 3 4 5 6 7 8 9 15 17 22 25 29 33 36 41 43 49 0
1 2 3 4 5 6 7 8 9 10 16 18 23 26 30 34 37 42 44 0
1 2 3 4 5 6 7 9 10 11 15 17 19 24 27 31 35 38 45 0
1 2 3 4 5 6 7 10 11 12 16 18 20 22 25 28 32 39 46 0
1 2 3 4 5 6 7 11 12 13 17 19 21 23 26 29 33 40 47 0
1 2 3 4 5 6 7 12 13 14 18 20 24 27 30 34 36 41 48 0
1 2 3 4 5 6 7 13 14 19 21 25 28 31 35 37 42 43 49 0
1 2 8 9 10 11 12 13 14 15 16 22 24 29 32 36 40 43 48 0
1 2 3 8 9 10 11 12 13 14 15 16 17 23 25 30 33 37 41 44 49 0
2 3 4 8 9 10 11 12 13 14 16 17 18 22 24 26 31 34 38 42 45 0
3 4 5 8 9 10 11 12 13 14 17 18 19 23 25 27 29 32 35 39 46 0
4 5 6 8 9 10 11 12 13 14 18 19 20 24 26 28 30 33 36 40 47 0
5 6 7 8 9 10 11 12 13 14 19 20 21 25 27 31 34 37 41 43 48 0
6 7 8 9 10 11 12 13 14 20 21 26 28 32 35 38 42 44 49 0
1 3 8 9 15 16 17 18 19 20 21 22 23 29 31 36 39 43 47 0
2 4 8 9 10 15 16 17 18 19 20 21 22 23 24 30 32 37 40 44 48 0
1 3 5 9 10 11 15 16 17 18 19 20 21 23 24 25 29 31 33 38 41 45 49 0
2 4 6 10 11 12 15 16 17 18 19 20 21 24 25 26 30 32 34 36 39 42 46 0
3 5 7 11 12 13 15 16 17 18 19 20 21 25 26 27 31 33 35 37 40 43 47 0
4 6 12 13 14 15 16 17 18 19 20 21 26 27 28 32 34 38 41 44 48 0
5 7 13 14 15 16 17 18 19 20 21 27 28 33 35 39 42 45 49 0
1 4 8 10 15 16 22 23 24 25 26 27 28 29 30 36 38 43 46 0
2 5 9 11 15 16 17 22 23 24 25 26 27 28 29 30 31 37 39 44 47 0
3 6 8 10 12 16 17 18 22 23 24 25 26 27 28 30 31 32 36 38 40 45 48 0
1 4 7 9 11 13 17 18 19 22 23 24 25 26 27 28 31 32 33 37 39 41 43 46 49 0
2 5 10 12 14 18 19 20 22 23 24 25 26 27 28 32 33 34 38 40 42 44 47 0
3 6 11 13 19 20 21 22 23 24 25 26 27 28 33 34 35 39 41 45 48 0
4 7 12 14 20 21 22 23 24 25 26 27 28 34 35 40 42 46 49 0
1 5 8 11 15 17 22 23 29 30 31 32 33 34 35 36 37 43 45 0
2 6 9 12 16 18 22 23 24 29 30 31 32 33 34 35 36 37 38 44 46 0
3 7 10 13 15 17 19 23 24 25 29 30 31 32 33 34 35 37 38 39 43 45 47 0
4 8 11 14 16 18 20 24 25 26 29 30 31 32 33 34 35 38 39 40 44 46 48 0
1 5 9 12 17 19 21 25 26 27 29 30 31 32 33 34 35 39 40 41 45 47 49 0
2 6 10 13 18 20 26 27 28 29 30 31 32 33 34 35 40 41 42 46 48 0
3 7 11 14 19 21 27 28 29 30 31 32 33 34 35 41 42 47 49 0
1 6 8 12 15 18 22 24 29 30 36 37 38 39 40 41 42 43 44 0
2 7 9 13 16 19 23 25 29 30 31 36 37 38 39 40 41 42 43 44 45 0
3 10 14 17 20 22 24 26 30 31 32 36 37 38 39 40 41 42 44 45 46 0
4 11 15 18 21 23 25 27 31 32 33 36 37 38 39 40 41 42 45 46 47 0
5 8 12 16 19 24 26 28 32 33 34 36 37 38 39 40 41 42 46 47 48 0
1 6 9 13 17 20 25 27 33 34 35 36 37 38 39 40 41 42 47 48 49 0
2 7 10 14 18 21 26 28 34 35 36 37 38 39 40 41 42 48 49 0
1 7 8 13 15 19 22 25 29 31 36 37 43 44 45 46 47 48 49 0
2 9 14 16 20 23 26 30 32 36 37 38 43 44 45 46 47 48 49 0
3 10 17 21 24 27 29 31 33 37 38 39 43 44 45 46 47 48 49 0
4 11 18 22 25 28 30 32 34 38 39 40 43 44 45 46 47 48 49 0
5 12 15 19 23 26 31 33 35 39 40 41 43 44 45 46 47 48 49 0
6 8 13 16 20 24 27 32 34 40 41 42 43 44 45 46 47 48 49 0
1 7 9 14 17 21 25 28 33 35 41 42 43 44 45 46 47 48 49 0
-25 -26 -27 -22 0
-25 -32 -4 -39 0
-25 -9 -41 -17 0
-25 -9 -41 -33 0
-25 -37 -13 -19 0
-25 -37 -13 -31 0
-25 -23 -24 -28 0
-25 -46 -18 -11 0
-17 -46 -13 -42 0
-17 -46 -7 -24 0
-17 -28 -37 -48 0
-17 -28 -43 -18 0
-17 -43 -34 -11 0
-17 -43 -7 -33 0
-17 -23 -40 -7 0
-33 -22 -7 -32 0
-33 -22 -13 -2 0
-33 -4 -8 -37 0
-33 -4 -43 -26 0
-33 -43 -10 -27 0
-33 -39 -16 -7 0
-9 -46 -19 -36 0
-9 -46 -12 -35 0
-9 -39 -27 -1 0
-9 -31 -28 -6 0
-9 -47 -28 -30 0
-9 -3 -40 -15 0
-9 -3 -15 -34 0
-41 -16 -47 -35 0
-41 -19 -44 -22 0
-41 -15 -4 -38 0
-41 -20 -3 -22 0
-41 -35 -47 -10 0
-41 -14 -31 -4 0
-41 -49 -11 -23 0
-1 -38 -19 -27 0
-1 -24 -40 -14 0
-1 -39 -20 -31 0
-1 -39 -32 -12 0
-1 -27 -26 -30 0
-1 -31 -28 -32 0
-1 -31 -19 -49 0
-1 -44 -18 -34 0
-1 -46 -26 -19 0
-2 -45 -27 -8 0
-2 -46 -20 -30 0
-2 -21 -39 -8 0
-2 -43 -32 -20 0
-3 -44 -27 -36 0
-4 -37 -21 -40 0
-4 -44 -34 -16 0
-4 -49 -24 -31 0
-4 -30 -48 -20 0
-5 -48 -23 -42 0
-5 -21 -30 -13 0
-5 -21 -13 -38 0
-5 -28 -37 -16 0
-6 -23 -14 -47 0
-6 -49 -32 -16 0
-6 -16 -46 -34 0
-6 -15 -14 -39 0
-7 -30 -18 -48 0
-7 -23 -34 -24 0
-7 -23 -39 -13 0
-7 -10 -39 -32 0
-7 -8 -38 -26 0
-8 -12 -38 -28 0
-22 -19 -18 -49 0
-22 -10 -14 -40 0
-22 -38 -42 -12 0
-22 -45 -13 -34 0
-29 -10 -13 -46 0
-29 -11 -48 -42 0
-29 -45 -20 -37 0
-29 -45 -12 -37 0
-36 -11 -35 -44 0
-36 -26 -10 -49 0
-36 -40 -10 -28 0
-43 -24 -42 -12 0
-43 -11 -18 -40 0
-43 -11 -37 -27 0
-43 -27 -16 -26 0
-49 -12 -31 -23 0
-49 -11 -18 -38 0
-49 -11 -19 -30 0
-49 -23 -24 -20 0
-75 57 81 0
-76 58 81 0
-77 59 81 0
-78 60 81 0
-79 61 81 0
-80 62 81 0
-66 57 81 0
-67 58 81 0
-68 59 81 0
-69 60 81 0
-70 61 81 0
-71 62 81 0
-66 -75 58 81 0
-66 -76 59 81 0
-66 -77 60 81 0
-66 -78 61 81 0
-66 -79 62 81 0
-66 -80 81 0
-67 -75 59 81 0
-67 -76 60 81 0
-67 -77 61 81 0
-67 -78 62 81 0
-67 -79 81 0
-67 -80 57 0
-68 -75 60 81 0
-68 -76 61 81 0
-68 -77 62 81 0
-68 -78 81 0
-68 -79 57 0
-68 -80 58 0
-69 -75 61 81 0
-69 -76 62 81 0
-69 -77 81 0
-69 -78 57 0
-69 -79 58 0
-69 -80 59 0
-70 -75 62 81 0
-70 -76 81 0
-70 -77 57 0
-70 -78 58 0
-70 -79 59 0
-70 -80 60 0
-71 -75 81 0
-71 -76 57 0
-71 -77 58 0
-71 -78 59 0
-71 -79 60 0
-71 -80 61 0
-81 50 0
-72 50 0
-81 -72 51 0
-73 51 0
-81 -73 52 0
-74 52 0
-81 -74 53 0
-63 50 0
-81 -63 51 0
-64 51 0
-81 -64 52 0
-65 52 0
-81 -65 53 0
-63 -72 51 0
-81 -63 -72 52 0
-63 -73 52 0
-81 -63 -73 53 0
-63 -74 53 0
-81 -63 -74 54 0
-64 -72 52 0
-81 -64 -72 53 0
-64 -73 53 0
-81 -64 -73 54 0
-64 -74 54 0
-81 -64 -74 55 0
-65 -72 53 0
-81 -65 -72 54 0
-65 -73 54 0
-81 -65 -73 55 0
-65 -74 55 0
-81 -65 -74 56 0
-90 75 96 0
-91 76 96 0
-92 77 96 0
-93 78 96 0
-94 79 96 0
-95 80 96 0
-83 75 96 0
-84 76 96 0
-85 77 96 0
-86 78 96 0
-87 79 96 0
-88 80 96 0
-83 -90 76 96 0
-83 -91 77 96 0
-83 -92 78 96 0
-83 -93 79 96 0
-83 -94 80 96 0
-83 -95 96 0
-84 -90 77 96 0
-84 -91 78 96 0
-84 -92 79 96 0
-84 -93 80 96 0
-84 -94 96 0
-84 -95 75 0
-85 -90 78 96 0
-85 -91 79 96 0
-85 -92 80 96 0
-85 -93 96 0
-85 -94 75 0
-85 -95 76 0
-86 -90 79 96 0
-86 -91 80 96 0
-86 -92 96 0
-86 -93 75 0
-86 -94 76 0
-86 -95 77 0
-87 -90 80 96 0
-87 -91 96 0
-87 -92 75 0
-87 -93 76 0
-87 -94 77 0
-87 -95 78 0
-88 -90 96 0
-88 -91 75 0
-88 -92 76 0
-88 -93 77 0
-88 -94 78 0
-88 -95 79 0
-96 72 0
-89 72 0
-96 -89 73 0
-82 72 0
-96 -82 73 0
-82 -89 73 0
-96 -82 -89 74 0
-106 97 0
-107 98 0
-108 99 0
-103 97 0
-104 98 0
-105 99 0
-103 -106 98 0
-103 -107 99 0
-103 -108 100 0
-104 -106 99 0
-104 -107 100 0
-104 -108 101 0
-105 -106 100 0
-105 -107 101 0
-105 -108 102 0
-38 106 0
-109 106 0
-110 107 0
-109 -38 107 0
-110 -38 108 0
-31 109 0
-32 109 0
-32 -31 110 0
-39 103 0
-111 103 0
-112 104 0
-111 -39 104 0
-112 -39 105 0
-46 111 0
-45 111 0
-45 -46 112 0
-122 113 0
-123 114 0
-124 115 0
-119 113 0
-120 114 0
-121 115 0
-119 -122 114 0
-119 -123 115 0
-119 -124 116 0
-120 -122 115 0
-120 -123 116 0
-120 -124 117 0
-121 -122 116 0
-121 -123 117 0
-121 -124 118 0
-44 122 0
-125 122 0
-126 123 0
-125 -44 123 0
-126 -44 124 0
-43 125 0
-36 125 0
-36 -43 126 0
-29 119 0
-127 119 0
-128 120 0
-127 -29 120 0
-128 -29 121 0
-30 127 0
-37 127 0
-37 -30 128 0
-113 90 129 0
-114 91 129 0
-115 92 129 0
-116 93 129 0
-117 94 129 0
-118 95 129 0
-97 90 129 0
-98 91 129 0
-99 92 129 0
-100 93 129 0
-101 94 129 0
-102 95 129 0
-97 -113 91 129 0
-97 -114 92 129 0
-97 -115 93 129 0
-97 -116 94 129 0
-97 -117 95 129 0
-97 -118 129 0
-98 -113 92 129 0
-98 -114 93 129 0
-98 -115 94 129 0
-98 -116 95 129 0
-98 -117 129 0
-98 -118 90 0
-99 -113 93 129 0
-99 -114 94 129 0
-99 -115 95 129 0
-99 -116 129 0
-99 -117 90 0
-99 -118 91 0
-100 -113 94 129 0
-100 -114 95 129 0
-100 -115 129 0
-100 -116 90 0
-100 -117 91 0
-100 -118 92 0
-101 -113 95 129 0
-101 -114 129 0
-101 -115 90 0
-101 -116 91 0
-101 -117 92 0
-101 -118 93 0
-102 -113 129 0
-102 -114 90 0
-102 -115 91 0
-102 -116 92 0
-102 -117 93 0
-102 -118 94 0
-129 89 0
-139 130 0
-140 131 0
-141 132 0
-136 130 0
-137 131 0
-138 132 0
-136 -139 131 0
-136 -140 132 0
-136 -141 133 0
-137 -139 132 0
-137 -140 133 0
-137 -141 134 0
-138 -139 133 0
-138 -140 134 0
-138 -141 135 0
-41 139 0
-142 139 0
-143 140 0
-142 -41 140 0
-143 -41 141 0
-40 142 0
-33 142 0
-33 -40 143 0
-26 136 0
-144 136 0
-145 137 0
-144 -26 137 0
-145 -26 138 0
-19 144 0
-20 144 0
-20 -19 145 0
-155 146 0
-156 147 0
-157 148 0
-152 146 0
-153 147 0
-154 148 0
-152 -155 147 0
-152 -156 148 0
-152 -157 149 0
-153 -155 148 0
-153 -156 149 0
-153 -157 150 0
-154 -155 149 0
-154 -156 150 0
-154 -157 151 0
-47 155 0
-158 155 0
-159 156 0
-158 -47 156 0
-159 -47 157 0
-48 158 0
-49 158 0
-49 -48 159 0
-42 152 0
-160 152 0
-161 153 0
-160 -42 153 0
-161 -42 154 0
-35 160 0
-34 160 0
-34 -35 161 0
-146 83 162 0
-147 84 162 0
-148 85 162 0
-149 86 162 0
-150 87 162 0
-151 88 162 0
-130 83 162 0
-131 84 162 0
-132 85 162 0
-133 86 162 0
-134 87 162 0
-135 88 162 0
-130 -146 84 162 0
-130 -147 85 162 0
-130 -148 86 162 0
-130 -149 87 162 0
-130 -150 88 162 0
-130 -151 162 0
-131 -146 85 162 0
-131 -147 86 162 0
-131 -148 87 162 0
-131 -149 88 162 0
-131 -150 162 0
-131 -151 83 0
-132 -146 86 162 0
-132 -147 87 162 0
-132 -148 88 162 0
-132 -149 162 0
-132 -150 83 0
-132 -151 84 0
-133 -146 87 162 0
-133 -147 88 162 0
-133 -148 162 0
-133 -149 83 0
-133 -150 84 0
-133 -151 85 0
-134 -146 88 162 0
-134 -147 162 0
-134 -148 83 0
-134 -149 84 0
-134 -150 85 0
-134 -151 86 0
-135 -146 162 0
-135 -147 83 0
-135 -148 84 0
-135 -149 85 0
-135 -150 86 0
-135 -151 87 0
-162 82 0
-171 66 177 0
-172 67 177 0
-173 68 177 0
-174 69 177 0
-175 70 177 0
-176 71 177 0
-164 66 177 0
-165 67 177 0
-166 68 177 0
-167 69 177 0
-168 70 177 0
-169 71 177 0
-164 -171 67 177 0
-164 -172 68 177 0
-164 -173 69 177 0
-164 -174 70 177 0
-164 -175 71 177 0
-164 -176 177 0
-165 -171 68 177 0
-165 -172 69 177 0
-165 -173 70 177 0
-165 -174 71 177 0
-165 -175 177 0
-165 -176 66 0
-166 -171 69 177 0
-166 -172 70 177 0
-166 -173 71 177 0
-166 -174 177 0
-166 -175 66 0
-166 -176 67 0
-167 -171 70 177 0
-167 -172 71 177 0
-167 -173 177 0
-167 -174 66 0
-167 -175 67 0
-167 -176 68 0
-168 -171 71 177 0
-168 -172 177 0
-168 -173 66 0
-168 -174 67 0
-168 -175 68 0
-168 -176 69 0
-169 -171 177 0
-169 -172 66 0
-169 -173 67 0
-169 -174 68 0
-169 -175 69 0
-169 -176 70 0
-177 63 0
-170 63 0
-177 -170 64 0
-163 63 0
-177 -163 64 0
-163 -170 64 0
-177 -163 -170 65 0
-187 178 0
-188 179 0
-189 180 0
-184 178 0
-185 179 0
-186 180 0
-184 -187 179 0
-184 -188 180 0
-184 -189 181 0
-185 -187 180 0
-185 -188 181 0
-185 -189 182 0
-186 -187 181 0
-186 -188 182 0
-186 -189 183 0
-13 187 0
-190 187 0
-191 188 0
-190 -13 188 0
-191 -13 189 0
-12 190 0
-5 190 0
-5 -12 191 0
-4 184 0
-192 184 0
-193 185 0
-192 -4 185 0
-193 -4 186 0
-3 192 0
-10 192 0
-10 -3 193 0
-203 194 0
-204 195 0
-205 196 0
-200 194 0
-201 195 0
-202 196 0
-200 -203 195 0
-200 -204 196 0
-200 -205 197 0
-201 -203 196 0
-201 -204 197 0
-201 -205 198 0
-202 -203 197 0
-202 -204 198 0
-202 -205 199 0
-27 203 0
-206 203 0
-207 204 0
-206 -27 204 0
-207 -27 205 0
-28 206 0
-21 206 0
-21 -28 207 0
-14 200 0
-208 200 0
-209 201 0
-208 -14 201 0
-209 -14 202 0
-7 208 0
-6 208 0
-6 -7 209 0
-194 171 210 0
-195 172 210 0
-196 173 210 0
-197 174 210 0
-198 175 210 0
-199 176 210 0
-178 171 210 0
-179 172 210 0
-180 173 210 0
-181 174 210 0
-182 175 210 0
-183 176 210 0
-178 -194 172 210 0
-178 -195 173 210 0
-178 -196 174 210 0
-178 -197 175 210 0
-178 -198 176 210 0
-178 -199 210 0
-179 -194 173 210 0
-179 -195 174 210 0
-179 -196 175 210 0
-179 -197 176 210 0
-179 -198 210 0
-179 -199 171 0
-180 -194 174 210 0
-180 -195 175 210 0
-180 -196 176 210 0
-180 -197 210 0
-180 -198 171 0
-180 -199 172 0
-181 -194 175 210 0
-181 -195 176 210 0
-181 -196 210 0
-181 -197 171 0
-181 -198 172 0
-181 -199 173 0
-182 -194 176 210 0
-182 -195 210 0
-182 -196 171 0
-182 -197 172 0
-182 -198 173 0
-182 -199 174 0
-183 -194 210 0
-183 -195 171 0
-183 -196 172 0
-183 -197 173 0
-183 -198 174 0
-183 -199 175 0
-210 170 0
-227 218 0
-228 219 0
-229 220 0
-224 218 0
-225 219 0
-226 220 0
-224 -227 219 0
-224 -228 220 0
-224 -229 221 0
-225 -227 220 0
-225 -228 221 0
-225 -229 222 0
-226 -227 221 0
-226 -228 222 0
-226 -229 223 0
-11 227 0
-230 227 0
-231 228 0
-230 -11 228 0
-231 -11 229 0
-18 230 0
-25 230 0
-25 -18 231 0
-24 224 0
-232 224 0
-233 225 0
-232 -24 225 0
-233 -24 226 0
-17 232 0
-16 232 0
-16 -17 233 0
-218 164 234 0
-219 165 234 0
-220 166 234 0
-221 167 234 0
-222 168 234 0
-223 169 234 0
-212 164 234 0
-213 165 234 0
-214 166 234 0
-215 167 234 0
-216 168 234 0
-217 169 234 0
-212 -218 165 234 0
-212 -219 166 234 0
-212 -220 167 234 0
-212 -221 168 234 0
-212 -222 169 234 0
-212 -223 234 0
-213 -218 166 234 0
-213 -219 167 234 0
-213 -220 168 234 0
-213 -221 169 234 0
-213 -222 234 0
-213 -223 164 0
-214 -218 167 234 0
-214 -219 168 234 0
-214 -220 169 234 0
-214 -221 234 0
-214 -222 164 0
-214 -223 165 0
-215 -218 168 234 0
-215 -219 169 234 0
-215 -220 234 0
-215 -221 164 0
-215 -222 165 0
-215 -223 166 0
-216 -218 169 234 0
-216 -219 234 0
-216 -220 164 0
-216 -221 165 0
-216 -222 166 0
-216 -223 167 0
-217 -218 234 0
-217 -219 164 0
-217 -220 165 0
-217 -221 166 0
-217 -222 167 0
-217 -223 168 0
-234 163 0
-211 163 0
-234 -211 0
-241 235 0
-242 236 0
-239 235 0
-240 236 0
-239 -241 236 0
-239 -242 237 0
-240 -241 237 0
-240 -242 238 0
-8 241 0
-9 241 0
-9 -8 242 0
-2 239 0
-1 239 0
-1 -2 240 0
-23 243 0
-246 243 0
-247 244 0
-246 -23 244 0
-247 -23 245 0
-22 246 0
-15 246 0
-15 -22 247 0
-243 212 248 0
-244 213 248 0
-245 214 248 0
-235 212 248 0
-236 213 248 0
-237 214 248 0
-238 215 248 0
-235 -243 213 248 0
-235 -244 214 248 0
-235 -245 215 248 0
-236 -243 214 248 0
-236 -244 215 248 0
-236 -245 216 248 0
-237 -243 215 248 0
-237 -244 216 248 0
-237 -245 217 248 0
-238 -243 216 248 0
-238 -244 217 248 0
-238 -245 248 0
-248 211 0
-50 0
-51 0
-52 0
-53 0
-54 0
-55 0
-56 0
-61 0
-62 0
